NAME : P-n6_2
TYPE : CVRP
DIMENSION : 6
EDGE_WEIGHT_TYPE : EUC_2D
CAPACITY : 4
NODE_COORD_SECTION
1 42 41
2 52 41
3 57 58
4 62 42
5 42 57
6 27 68
DEMAND_SECTION 
1 0 
2 1
3 1
4 1
5 1
6 1
DEPOT_SECTION
1
-1